2
19
42
70 40
17 9 1 153
11 19 4 209
12 21 3 252
14 23 4 322
24 15 3 360
25 16 4 400
27 17 2 459
18 29 3 342
21 31 3 651
32 22 2 704
23 33 3 759
34 24 2 816
35 25 2 875
36 26 1 936
27 27 1 729
38 28 1 784
39 29 1 1131
41 30 1 1230
43 31 1 1333

